c --- [ banner ] -------------------------------------------------------------
c 
c CaDiCaL Radically Simplified CDCL SAT Solver
c Copyright (c) 2016-2021 A. Biere, M. Fleury, N. Froleyks
c 
c Version 1.5.2 9c38a080b32c28d805e8e6ca21849856b0cda605
c g++ (Ubuntu 7.5.0-3ubuntu1~18.04) 7.5.0 -Wall -Wextra -O3 -DNDEBUG
c Wed Feb 16 23:15:36 EST 2022 Linux fac-vanhoeve01 5.4.0-99-generic x86_64
c 
c --- [ limit ] --------------------------------------------------------------
c 
c setting time limit to 600 seconds real time (due to '-t 600')
c setting conflict limit to 1000000000 conflicts (due to '1000000000')
c 
c --- [ parsing input ] ------------------------------------------------------
c 
c reading DIMACS file from 'ddfwcnfs/wap07a.col_40.cnf'
c opening file to read 'ddfwcnfs/wap07a.col_40.cnf'
c found 'p cnf 72360 3903769' header
c parsed 3903769 clauses in 2.35 seconds process time
c closing file 'ddfwcnfs/wap07a.col_40.cnf'
c after reading 62064102 bytes 59.2 MB
c 
c --- [ options ] ------------------------------------------------------------
c 
c all options are set to their default value
c 
c --- [ solving ] ------------------------------------------------------------
c 
c time measured in process time since initialization
c 
c  seconds   reductions  redundant   irredundant
c          MB    restarts       trail        variables
c           level   conflicts       glue          remaining
c 
c *  2.35 337  0 0   0    0    0  0% 0 3897796 70437 97%
c {  2.39 338  0 0   0    0    0  0% 0 3897796 70437 97%
c -  3.17 338 36 1   9  300  237 13% 25 3864379 70437 97%
c }  3.35 338 34 1  57 1001  621 12% 28 3864379 70437 97%
c [  3.35 338  0 1  57 1001  621  0% 0 3864379 70437 97%
c O  3.35 338 38 1  57 1002  622  4% 38 3864379 70437 97%
c -  5.39 427 41 2  57 1852  863  5% 38 3864379 70437 97%
c ]  5.48 427 45 2  58 3003 1804  5% 41 3864379 70437 97%
c {  5.48 427 34 2  58 3003 1804 12% 28 3864379 70437 97%
c F  5.49 427 34 2  58 3004 1805 12% 28 3864379 70437 97%
c -  7.05 427 69 3 337 4180 1618 12% 32 3864379 70437 97%
c # 10.66 426 55 3 561 6005 2370 12% 34 3864379 70437 97%
c } 10.79 426 53 3 578 7003 3006 12% 35 3864379 70437 97%
c [ 10.79 426 45 3 578 7003 3006  5% 41 3864379 70437 97%
c - 12.27 426 47 4 579 7284 2028  5% 41 3864379 70437 97%
c I 12.54 426 54 4 580 10007 3956  5% 41 3864379 70437 97%
c - 14.18 426 586 5 581 11164 3340  8% 40 3864379 70437 97%
c s 15.68 440 911 5 582 11581 3519 10% 42 3864379 70437 97%
c e 24.26 441 911 5 582 11581  421 10% 42 3268041 64185 89%
c s 25.74 463 911 5 582 11581  420 10% 42 3268041 64185 89%
c 
c  seconds    reductions   redundant    irredundant
c          MB     restarts        trail         variables
c            level    conflicts       glue           remaining
c 
c ^ 26.54 463 911 5 582 11581  420 10% 42 3268041 64185 89%
c ] 32.76 451 960 5 583 15003 3198 38% 53 3268041 64185 89%
c { 32.76 451 53 5 583 15003 3198 14% 35 3268041 64185 89%
c B 32.77 451 54 5 585 15008 3203 14% 35 3268041 64185 89%
c - 34.37 452 62 6 616 15821 3652 13% 34 3268041 64185 89%
c W 36.33 452 51 6 616 21010 7525  9% 29 3268041 64185 89%
c - 37.76 452 53 7 634 21104 4970  9% 29 3268041 64185 89%
c - 39.69 452 47 8 2168 27138 3121  8% 31 3268041 64185 89%
c F 39.78 452 47 8 2363 28012 3390  8% 32 3268041 64185 89%
c } 43.66 452 45 8 2463 31003 5103  9% 32 3268041 64185 89%
c [ 43.66 452 960 8 2463 31003 5103 38% 53 3268041 64185 89%
c - 45.42 452 769 9 2464 33927 5384 32% 57 3268041 64185 89%
c s 45.60 452 751 9 2464 34266 5657 32% 58 3268041 64185 89%
c s 51.85 452 751 9 2464 34266 5654 32% 58 3268041 64185 89%
c ^ 52.57 452 751 9 2464 34266 5654 32% 58 3268041 64185 89%
c B 52.81 452 666 9 2466 36013 7126 28% 57 3268041 64185 89%
c - 55.78 454 647 10 2469 41469 7975 26% 77 3268041 64185 89%
c W 58.22 454 566 10 2470 45014 10773 24% 82 3268041 64185 89%
c - 60.20 454 485 11 2471 49767 8649 21% 84 3268041 64185 89%
c O 64.16 454 423 11 2472 55016 12715 19% 84 3268041 64185 89%
c 
c  seconds    reductions     redundant    irredundant
c          MB      restarts         trail         variables
c            level      conflicts       glue           remaining
c 
c - 65.86 454 378 12 2475 58819 9437 18% 79 3268041 64185 89%
c ] 66.35 454 338 12 2478 63003 12061 16% 74 3268041 64185 89%
c { 66.35 454 45 12 2478 63003 12061  9% 32 3268041 64185 89%
c B 66.67 454 47 12 2480 66017 14411  9% 32 3268041 64185 89%
c s 67.23 454 47 12 2982 68287 15073  9% 32 3268041 64185 89%
c s 73.69 454 47 12 2982 68287 14740  9% 32 3268041 64185 89%
c ^ 74.50 454 47 12 2982 68287 14740  9% 32 3268041 64185 89%
c - 75.93 453 47 13 2996 68628 8804  9% 32 3268041 64185 89%
c W 82.17 453 45 13 3662 78019 13021  9% 33 3268041 64185 89%
c - 83.74 452 47 14 3834 79190 7118  9% 34 3268041 64185 89%
c - 86.18 453 45 15 4456 90505 7717  9% 35 3268041 64185 89%
c # 86.25 453 45 15 4464 91025 7995  9% 35 3268041 64185 89%
c - 88.66 453 43 16 4484 102573 9410  9% 34 3268041 64185 89%
c B 92.78 453 42 16 4484 105026 10834  9% 34 3268041 64185 89%
c s 94.49 453 44 16 5218 113648 11558  9% 35 3268041 64185 89%
c s 100.59 453 44 16 5218 113648 10736  9% 35 3268041 64185 89%
c ^ 101.63 453 44 16 5218 113648 10736  9% 35 3268041 64185 89%
c - 104.07 452 44 17 5299 115396 7213  9% 35 3268041 64185 89%
c W 109.63 452 43 17 5459 120028 9218  9% 35 3268041 64185 89%
c } 110.78 452 43 17 5678 127005 12392  9% 35 3268041 64185 89%
c 
c  seconds     reductions       redundant    irredundant
c           MB      restarts           trail         variables
c             level      conflicts         glue           remaining
c 
c [ 110.78 452 338 17 5678 127005 12392 16% 74 3268041 64185 89%
c - 112.87 453 323 18 5678 128973 8734 16% 72 3268041 64185 89%
c B 113.95 453 276 18 5683 136029 13544 14% 67 3268041 64185 89%
c - 124.64 457 766 19 5686 143307 13693 18% 82 3268041 64185 89%
c W 134.54 457 729 19 5687 153030 21605 21% 89 3268041 64185 89%
c - 138.32 459 817 20 5687 158392 15401 21% 90 3268041 64185 89%
c s 142.42 459 897 20 5690 170351 23095 21% 95 3268041 64185 89%
c s 151.14 459 897 20 5690 170351 23087 21% 95 3268041 64185 89%
c ^ 152.09 459 897 20 5690 170351 23087 21% 95 3268041 64185 89%
c I 152.29 459 888 20 5690 171038 23608 20% 95 3268041 64185 89%
c - 155.02 459 1198 21 5693 174234 16212 21% 95 3268041 64185 89%
c B 162.91 459 955 21 5701 190039 28213 18% 88 3268041 64185 89%
c - 165.05 456 945 22 5701 190829 16792 18% 87 3268041 64185 89%
c - 171.07 456 757 23 5708 208177 18024 15% 80 3268041 64185 89%
c W 177.53 456 740 23 5709 210040 19396 15% 80 3268041 64185 89%
c - 188.45 456 611 24 5717 226279 19403 14% 73 3268041 64185 89%
c O 189.47 456 580 24 5717 231042 23128 13% 71 3268041 64185 89%
c s 190.64 456 531 24 5718 238393 27154 12% 67 3268041 64185 89%
c s 200.29 456 531 24 5718 238393 25627 12% 67 3268041 64185 89%
c - 204.49 454 490 25 5718 245137 16722 12% 64 3268041 64185 89%
c 
c  seconds     reductions       redundant    irredundant
c           MB      restarts           trail         variables
c             level      conflicts         glue           remaining
c 
c B 205.98 454 450 25 5719 253043 22362 11% 61 3268041 64185 89%
c ] 207.64 454 1059 25 5719 255006 24077 12% 68 3268041 64185 89%
c { 207.65 454 43 25 5719 255006 24077  9% 35 3268041 64185 89%
c - 211.56 457 44 26 5843 264749 18560  9% 35 3268041 64185 89%
c F 219.06 457 43 26 5923 276047 24846  8% 35 3268041 64185 89%
c - 222.52 454 42 27 5934 285116 17557  8% 35 3268041 64185 89%
c B 225.15 454 42 27 5993 300055 27448  8% 35 3268041 64185 89%
c - 228.58 454 43 28 6124 306238 18828  8% 35 3268041 64185 89%
c W 239.73 454 45 28 6302 325061 33026  8% 35 3268041 64185 89%
c - 242.09 455 46 29 6346 328112 21519  8% 35 3268041 64185 89%
c - 252.13 454 44 30 6388 350741 20131  8% 35 3268041 64185 89%
c # 252.19 454 44 30 6388 351062 20310  8% 35 3268041 64185 89%
c - 257.85 455 43 31 6437 374123 21583  8% 34 3268041 64185 89%
c B 258.43 455 43 31 6437 378064 24278  8% 34 3268041 64185 89%
c - 268.13 454 42 32 7554 398260 17583  8% 35 3268041 64185 89%
c W 277.56 454 41 32 7752 406065 21286  8% 35 3268041 64185 89%
c - 280.92 454 41 33 7940 423151 18768  8% 35 3268041 64185 89%
c F 282.16 454 40 33 7947 435066 25603  8% 34 3268041 64185 89%
c - 285.06 455 40 34 7956 448797 22653  8% 33 3268041 64185 89%
c B 290.92 455 39 34 7999 465068 33845  8% 33 3268041 64185 89%
c 
c  seconds    reductions        redundant    irredundant
c           MB      restarts           trail         variables
c            level       conflicts         glue           remaining
c 
c - 293.83 455 40 35 10112 475197 20828  8% 33 3268041 64185 89%
c W 304.42 455 39 35 12098 496072 28683  8% 34 3268041 64185 89%
c - 306.81 454 40 36 12642 502351 16014  8% 34 3268041 64185 89%
c } 307.71 454 40 36 13122 511007 20001  8% 35 3268041 64185 89%
c [ 307.71 454 1059 36 13122 511007 20001 12% 68 3268041 64185 89%
c W 322.30 454 958 36 13122 528073 31755 12% 65 3268041 64185 89%
c - 324.18 456 938 37 13122 530262 21715 12% 65 3268041 64185 89%
c - 329.90 458 799 38 13135 558925 26281 12% 62 3268041 64185 89%
c I 330.25 458 782 38 13136 561076 27811 12% 61 3268041 64185 89%
c - 339.64 466 1914 39 13147 588343 30654 16% 77 3268041 64185 89%
c B 341.19 466 1806 39 13151 595082 35869 16% 78 3268041 64185 89%
c - 353.92 468 3810 40 13153 618517 32376 20% 89 3268041 64185 89%
c W 369.20 468 4293 40 13159 630083 42115 22% 93 3268041 64185 89%
c - 374.97 465 3554 41 13168 649444 33820 21% 92 3268041 64185 89%
c s 375.22 465 3554 41 13168 649444 33371 21% 92 3268041 64185 89%
c w 379.66 465 3554 41 13168 649444 33358 21% 92 3268041 64185 89%
c O 384.19 465 3202 41 13175 666085 46587 21% 90 3268041 64185 89%
c - 392.67 461 2750 42 13183 681124 34890 19% 84 3268041 64185 89%
c B 396.65 461 2208 42 13184 703087 49411 17% 76 3268041 64185 89%
c - 400.83 460 2505 43 13185 713558 33673 19% 77 3268041 64185 89%
c 
c  seconds      reductions        redundant    irredundant
c           MB        restarts           trail         variables
c             level        conflicts         glue           remaining
c 
c W 419.73 460 2078 43 13186 741089 53692 23% 80 3268041 64185 89%
c - 422.49 462 1973 44 13186 746746 32947 23% 78 3268041 64185 89%
c I 432.96 462 1438 44 13186 780090 58607 20% 69 3268041 64185 89%
c - 435.38 462 1663 45 13186 780688 35107 21% 76 3268041 64185 89%
c - 472.07 537 8641 46 13193 815387 38991 30% 237 3268041 64185 89%
c B 473.22 537 8251 46 13196 820091 42681 29% 230 3268041 64185 89%
c - 482.27 463 6110 47 13209 850840 37791 24% 188 3268041 64185 89%
c W 503.78 463 5528 47 13215 861092 45602 23% 177 3268041 64185 89%
c - 512.47 469 5772 48 13217 887045 39746 24% 162 3268041 64185 89%
c O 515.80 469 5043 48 13227 903094 52847 24% 149 3268041 64185 89%
c - 520.33 463 4107 49 13235 924005 39908 21% 130 3268041 64185 89%
c B 524.22 463 3309 49 13247 946095 55789 19% 113 3268041 64185 89%
c - 537.50 468 3516 50 13248 961719 42414 21% 120 3268041 64185 89%
c W 560.85 468 2692 50 13249 990097 64276 21% 110 3268041 64185 89%
c - 564.43 466 3168 51 13249 1000188 41700 24% 106 3268041 64185 89%
c ] 570.98 466 2988 51 13262 1023007 59466 25% 106 3268041 64185 89%
c { 570.98 466 40 51 13262 1023007 59466  8% 35 3268041 64185 89%
c # 572.86 466 40 51 13545 1035101 65630  8% 35 3268041 64185 89%
c - 574.91 464 40 52 13549 1039411 38619  8% 35 3268041 64185 89%
c - 585.67 457 39 53 13672 1079390 33929  8% 35 3268041 64185 89%
c 
c  seconds    reductions         redundant    irredundant
c           MB      restarts            trail         variables
c            level        conflicts         glue           remaining
c 
c B 585.90 457 39 53 13672 1081103 34773  8% 35 3268041 64185 89%
c - 597.54 459 41 54 14110 1120122 39301  8% 35 3268041 64185 89%
c s 597.92 459 41 54 14110 1120122 39236  8% 35 3268041 64185 89%
c } 601.47 459 41 54 14110 1120122 39236  8% 35 3268041 64185 89%
c ? 601.47 459 41 54 14110 1120122 39236  8% 35 3268041 64185 89%
c 
c --- [ result ] -------------------------------------------------------------
c 
c UNKNOWN
c 
c --- [ run-time profiling ] -------------------------------------------------
c 
c process time taken by individual solving procedures
c (percentage relative to process time for solving)
c 
c       463.68   77.39% search
c       245.47   40.97% stable
c       135.44   22.61% simplify
c       109.73   18.32% walk
c       108.44   18.10% unstable
c        33.38    5.57% ternary
c        22.41    3.74% elim
c        22.07    3.68% vivify
c        18.17    3.03% probe
c         4.92    0.82% subsume
c         2.35    0.39% parse
c         0.03    0.01% lucky
c   =================================
c       599.11   99.61% solve
c 
c last line shows process time for solving
c (percentage relative to total process time)
c 
c --- [ statistics ] ---------------------------------------------------------
c 
c chronological:            201002        17.94 %  of conflicts
c conflicts:               1120122      1869.63    per second
c decisions:               2088043      3485.22    per second
c eliminated:                 6252         8.64 %  of all variables
c fixed:                      1923         2.66 %  of all variables
c learned:                 1108206        98.94 %  per conflict
c learned_lits:          170186013       100.00 %  learned literals
c minimized:                     0         0.00 %  learned literals
c shrunken:               56641346        33.28 %  learned literals
c minishrunken:            5468009         3.21 %  learned literals
c propagations:          414196556         0.69 M  per second
c reduced:                  733958        65.52 %  per conflict
c rephased:                     46     24350.48    interval
c restarts:                  14110        79.38    interval
c stabilizing:                   5        60.89 %  of conflicts
c subsumed:                 331889         3.27 %  of all clauses
c strengthened:              15980         0.16 %  of all clauses
c vivified:                     28         0.00 %  of all clauses
c walked:                       14     80008.71    interval
c weakened:                 670291         2.73    average size
c 
c seconds are measured in process time for solving
c 
c --- [ resources ] ----------------------------------------------------------
c 
c total process time since initialization:       601.47    seconds
c total real time since initialization:          601.57    seconds
c maximum resident set size of process:          633.88    MB
c 
c --- [ shutting down ] ------------------------------------------------------
c 
c exit 0
